% File represents an instance of a Composite Structure problem to be solved by a CP framework
% Created on 2025-03-26 10:41:24.169
T = 50;
n = 16;
m = 24;
edges = [(1, 2),
(5, 6),
(10, 9),
(13, 14),
(2, 3),
(6, 7),
(11, 10),
(15, 14),
(4, 3),
(8, 7),
(12, 11),
(16, 15),
(1, 5),
(5, 9),
(13, 9),
(2, 6),
(10, 6),
(10, 14),
(3, 7),
(11, 7),
(11, 15),
(4, 8),
(12, 8),
(12, 16)];
counts = [|16, 8, 16, 10,
|16, 4, 16, 8,
|16, 4, 16, 4,
|16, 8, 16, 6,
|16, 8, 16, 4,
|16, 4, 16, 4,
|16, 4, 16, 2,
|16, 8, 16, 2,
|14, 6, 14, 4,
|16, 6, 16, 4,
|16, 8, 16, 4,
|16, 10, 16, 4,
|16, 6, 16, 4,
|16, 4, 16, 2,
|16, 6, 16, 2,
|16, 10, 16, 2|];
